NAME: instance_1990
TYPE: TSP
DIMENSION: 20
EDGE_WEIGHT_TYPE: EUC_2D
NODE_COORD_SECTION
0 99.83 34.47
1 32.76 35.18
2 15.04 47.36
3 65.82 58.54
4 2.37 2.83
5 3.71 17.96
6 40.77 17.89
7 94.10 0.71
8 24.09 23.69
9 36.64 64.94
10 51.08 48.17
11 61.47 85.21
12 1.28 66.17
13 85.25 63.93
14 47.20 27.95
15 95.27 48.79
16 87.98 57.98
17 92.36 40.16
18 75.93 88.35
19 97.99 84.64
EOF
